c nIsolatedPIs 0
c maxPI 16
p cnf 412 1189
c gate 17 4 10 0
4 -17 0
10 -17 0
-4 -10 17 0
c gate 18 5 9 0
5 -18 0
9 -18 0
-5 -9 18 0
c gate 19 17 18 0
17 -19 0
18 -19 0
-17 -18 19 0
c gate 20 3 11 0
3 -20 0
11 -20 0
-3 -11 20 0
c gate 21 -17 -18 0
-17 -21 0
-18 -21 0
17 18 21 0
c gate 22 -19 -21 0
-19 -22 0
-21 -22 0
19 21 22 0
c gate 23 20 22 0
20 -23 0
22 -23 0
-20 -22 23 0
c gate 24 -19 -23 0
-19 -24 0
-23 -24 0
19 23 24 0
c gate 25 5 10 0
5 -25 0
10 -25 0
-5 -10 25 0
c gate 26 6 9 0
6 -26 0
9 -26 0
-6 -9 26 0
c gate 27 -25 -26 0
-25 -27 0
-26 -27 0
25 26 27 0
c gate 28 25 26 0
25 -28 0
26 -28 0
-25 -26 28 0
c gate 29 -27 -28 0
-27 -29 0
-28 -29 0
27 28 29 0
c gate 30 4 11 0
4 -30 0
11 -30 0
-4 -11 30 0
c gate 31 29 30 0
29 -31 0
30 -31 0
-29 -30 31 0
c gate 32 -29 -30 0
-29 -32 0
-30 -32 0
29 30 32 0
c gate 33 -31 -32 0
-31 -33 0
-32 -33 0
31 32 33 0
c gate 34 -24 33 0
-24 -34 0
33 -34 0
24 -33 34 0
c gate 35 24 -33 0
24 -35 0
-33 -35 0
-24 33 35 0
c gate 36 -34 -35 0
-34 -36 0
-35 -36 0
34 35 36 0
c gate 37 1 14 0
1 -37 0
14 -37 0
-1 -14 37 0
c gate 38 2 13 0
2 -38 0
13 -38 0
-2 -13 38 0
c gate 39 3 12 0
3 -39 0
12 -39 0
-3 -12 39 0
c gate 40 -38 -39 0
-38 -40 0
-39 -40 0
38 39 40 0
c gate 41 38 39 0
38 -41 0
39 -41 0
-38 -39 41 0
c gate 42 -40 -41 0
-40 -42 0
-41 -42 0
40 41 42 0
c gate 43 37 42 0
37 -43 0
42 -43 0
-37 -42 43 0
c gate 44 -37 -42 0
-37 -44 0
-42 -44 0
37 42 44 0
c gate 45 -43 -44 0
-43 -45 0
-44 -45 0
43 44 45 0
c gate 46 36 45 0
36 -46 0
45 -46 0
-36 -45 46 0
c gate 47 -34 -46 0
-34 -47 0
-46 -47 0
34 46 47 0
c gate 48 2 14 0
2 -48 0
14 -48 0
-2 -14 48 0
c gate 49 3 13 0
3 -49 0
13 -49 0
-3 -13 49 0
c gate 50 4 12 0
4 -50 0
12 -50 0
-4 -12 50 0
c gate 51 -49 -50 0
-49 -51 0
-50 -51 0
49 50 51 0
c gate 52 49 50 0
49 -52 0
50 -52 0
-49 -50 52 0
c gate 53 -51 -52 0
-51 -53 0
-52 -53 0
51 52 53 0
c gate 54 -48 -53 0
-48 -54 0
-53 -54 0
48 53 54 0
c gate 55 48 53 0
48 -55 0
53 -55 0
-48 -53 55 0
c gate 56 -54 -55 0
-54 -56 0
-55 -56 0
54 55 56 0
c gate 57 -28 -31 0
-28 -57 0
-31 -57 0
28 31 57 0
c gate 58 5 11 0
5 -58 0
11 -58 0
-5 -11 58 0
c gate 59 6 10 0
6 -59 0
10 -59 0
-6 -10 59 0
c gate 60 7 9 0
7 -60 0
9 -60 0
-7 -9 60 0
c gate 61 -59 -60 0
-59 -61 0
-60 -61 0
59 60 61 0
c gate 62 59 60 0
59 -62 0
60 -62 0
-59 -60 62 0
c gate 63 -61 -62 0
-61 -63 0
-62 -63 0
61 62 63 0
c gate 64 58 63 0
58 -64 0
63 -64 0
-58 -63 64 0
c gate 65 -58 -63 0
-58 -65 0
-63 -65 0
58 63 65 0
c gate 66 -64 -65 0
-64 -66 0
-65 -66 0
64 65 66 0
c gate 67 -57 66 0
-57 -67 0
66 -67 0
57 -66 67 0
c gate 68 57 -66 0
57 -68 0
-66 -68 0
-57 66 68 0
c gate 69 -67 -68 0
-67 -69 0
-68 -69 0
67 68 69 0
c gate 70 56 69 0
56 -70 0
69 -70 0
-56 -69 70 0
c gate 71 -56 -69 0
-56 -71 0
-69 -71 0
56 69 71 0
c gate 72 -70 -71 0
-70 -72 0
-71 -72 0
70 71 72 0
c gate 73 -47 72 0
-47 -73 0
72 -73 0
47 -72 73 0
c gate 74 1 15 0
1 -74 0
15 -74 0
-1 -15 74 0
c gate 75 -41 -43 0
-41 -75 0
-43 -75 0
41 43 75 0
c gate 76 74 -75 0
74 -76 0
-75 -76 0
-74 75 76 0
c gate 77 -74 75 0
-74 -77 0
75 -77 0
74 -75 77 0
c gate 78 -76 -77 0
-76 -78 0
-77 -78 0
76 77 78 0
c gate 79 47 -72 0
47 -79 0
-72 -79 0
-47 72 79 0
c gate 80 -73 -79 0
-73 -80 0
-79 -80 0
73 79 80 0
c gate 81 78 80 0
78 -81 0
80 -81 0
-78 -80 81 0
c gate 82 -73 -81 0
-73 -82 0
-81 -82 0
73 81 82 0
c gate 83 1 16 0
1 -83 0
16 -83 0
-1 -16 83 0
c gate 84 2 15 0
2 -84 0
15 -84 0
-2 -15 84 0
c gate 85 -52 -55 0
-52 -85 0
-55 -85 0
52 55 85 0
c gate 86 84 -85 0
84 -86 0
-85 -86 0
-84 85 86 0
c gate 87 -84 85 0
-84 -87 0
85 -87 0
84 -85 87 0
c gate 88 -86 -87 0
-86 -88 0
-87 -88 0
86 87 88 0
c gate 89 -83 -88 0
-83 -89 0
-88 -89 0
83 88 89 0
c gate 90 83 88 0
83 -90 0
88 -90 0
-83 -88 90 0
c gate 91 -89 -90 0
-89 -91 0
-90 -91 0
89 90 91 0
c gate 92 -67 -70 0
-67 -92 0
-70 -92 0
67 70 92 0
c gate 93 3 14 0
3 -93 0
14 -93 0
-3 -14 93 0
c gate 94 4 13 0
4 -94 0
13 -94 0
-4 -13 94 0
c gate 95 5 12 0
5 -95 0
12 -95 0
-5 -12 95 0
c gate 96 -94 -95 0
-94 -96 0
-95 -96 0
94 95 96 0
c gate 97 94 95 0
94 -97 0
95 -97 0
-94 -95 97 0
c gate 98 -96 -97 0
-96 -98 0
-97 -98 0
96 97 98 0
c gate 99 -93 -98 0
-93 -99 0
-98 -99 0
93 98 99 0
c gate 100 93 98 0
93 -100 0
98 -100 0
-93 -98 100 0
c gate 101 -99 -100 0
-99 -101 0
-100 -101 0
99 100 101 0
c gate 102 -62 -64 0
-62 -102 0
-64 -102 0
62 64 102 0
c gate 103 6 11 0
6 -103 0
11 -103 0
-6 -11 103 0
c gate 104 7 10 0
7 -104 0
10 -104 0
-7 -10 104 0
c gate 105 8 9 0
8 -105 0
9 -105 0
-8 -9 105 0
c gate 106 -104 -105 0
-104 -106 0
-105 -106 0
104 105 106 0
c gate 107 104 105 0
104 -107 0
105 -107 0
-104 -105 107 0
c gate 108 -106 -107 0
-106 -108 0
-107 -108 0
106 107 108 0
c gate 109 103 108 0
103 -109 0
108 -109 0
-103 -108 109 0
c gate 110 -103 -108 0
-103 -110 0
-108 -110 0
103 108 110 0
c gate 111 -109 -110 0
-109 -111 0
-110 -111 0
109 110 111 0
c gate 112 -102 111 0
-102 -112 0
111 -112 0
102 -111 112 0
c gate 113 102 -111 0
102 -113 0
-111 -113 0
-102 111 113 0
c gate 114 -112 -113 0
-112 -114 0
-113 -114 0
112 113 114 0
c gate 115 101 114 0
101 -115 0
114 -115 0
-101 -114 115 0
c gate 116 -101 -114 0
-101 -116 0
-114 -116 0
101 114 116 0
c gate 117 -115 -116 0
-115 -117 0
-116 -117 0
115 116 117 0
c gate 118 -92 117 0
-92 -118 0
117 -118 0
92 -117 118 0
c gate 119 92 -117 0
92 -119 0
-117 -119 0
-92 117 119 0
c gate 120 -118 -119 0
-118 -120 0
-119 -120 0
118 119 120 0
c gate 121 91 120 0
91 -121 0
120 -121 0
-91 -120 121 0
c gate 122 -91 -120 0
-91 -122 0
-120 -122 0
91 120 122 0
c gate 123 -121 -122 0
-121 -123 0
-122 -123 0
121 122 123 0
c gate 124 -82 123 0
-82 -124 0
123 -124 0
82 -123 124 0
c gate 125 82 -123 0
82 -125 0
-123 -125 0
-82 123 125 0
c gate 126 -124 -125 0
-124 -126 0
-125 -126 0
124 125 126 0
c gate 127 76 126 0
76 -127 0
126 -127 0
-76 -126 127 0
c gate 128 -124 -127 0
-124 -128 0
-127 -128 0
124 127 128 0
c gate 129 -86 -90 0
-86 -129 0
-90 -129 0
86 90 129 0
c gate 130 -118 -121 0
-118 -130 0
-121 -130 0
118 121 130 0
c gate 131 2 16 0
2 -131 0
16 -131 0
-2 -16 131 0
c gate 132 3 15 0
3 -132 0
15 -132 0
-3 -15 132 0
c gate 133 -97 -100 0
-97 -133 0
-100 -133 0
97 100 133 0
c gate 134 132 -133 0
132 -134 0
-133 -134 0
-132 133 134 0
c gate 135 -132 133 0
-132 -135 0
133 -135 0
132 -133 135 0
c gate 136 -134 -135 0
-134 -136 0
-135 -136 0
134 135 136 0
c gate 137 131 136 0
131 -137 0
136 -137 0
-131 -136 137 0
c gate 138 -131 -136 0
-131 -138 0
-136 -138 0
131 136 138 0
c gate 139 -137 -138 0
-137 -139 0
-138 -139 0
137 138 139 0
c gate 140 -112 -115 0
-112 -140 0
-115 -140 0
112 115 140 0
c gate 141 4 14 0
4 -141 0
14 -141 0
-4 -14 141 0
c gate 142 5 13 0
5 -142 0
13 -142 0
-5 -13 142 0
c gate 143 6 12 0
6 -143 0
12 -143 0
-6 -12 143 0
c gate 144 -142 -143 0
-142 -144 0
-143 -144 0
142 143 144 0
c gate 145 142 143 0
142 -145 0
143 -145 0
-142 -143 145 0
c gate 146 -144 -145 0
-144 -146 0
-145 -146 0
144 145 146 0
c gate 147 -141 -146 0
-141 -147 0
-146 -147 0
141 146 147 0
c gate 148 141 146 0
141 -148 0
146 -148 0
-141 -146 148 0
c gate 149 -147 -148 0
-147 -149 0
-148 -149 0
147 148 149 0
c gate 150 8 10 0
8 -150 0
10 -150 0
-8 -10 150 0
c gate 151 7 11 0
7 -151 0
11 -151 0
-7 -11 151 0
c gate 152 150 151 0
150 -152 0
151 -152 0
-150 -151 152 0
c gate 153 -150 -151 0
-150 -153 0
-151 -153 0
150 151 153 0
c gate 154 -152 -153 0
-152 -154 0
-153 -154 0
152 153 154 0
c gate 155 -107 -109 0
-107 -155 0
-109 -155 0
107 109 155 0
c gate 156 154 -155 0
154 -156 0
-155 -156 0
-154 155 156 0
c gate 157 -154 155 0
-154 -157 0
155 -157 0
154 -155 157 0
c gate 158 -156 -157 0
-156 -158 0
-157 -158 0
156 157 158 0
c gate 159 149 158 0
149 -159 0
158 -159 0
-149 -158 159 0
c gate 160 -149 -158 0
-149 -160 0
-158 -160 0
149 158 160 0
c gate 161 -159 -160 0
-159 -161 0
-160 -161 0
159 160 161 0
c gate 162 -140 161 0
-140 -162 0
161 -162 0
140 -161 162 0
c gate 163 140 -161 0
140 -163 0
-161 -163 0
-140 161 163 0
c gate 164 -162 -163 0
-162 -164 0
-163 -164 0
162 163 164 0
c gate 165 139 164 0
139 -165 0
164 -165 0
-139 -164 165 0
c gate 166 -139 -164 0
-139 -166 0
-164 -166 0
139 164 166 0
c gate 167 -165 -166 0
-165 -167 0
-166 -167 0
165 166 167 0
c gate 168 -130 167 0
-130 -168 0
167 -168 0
130 -167 168 0
c gate 169 130 -167 0
130 -169 0
-167 -169 0
-130 167 169 0
c gate 170 -168 -169 0
-168 -170 0
-169 -170 0
168 169 170 0
c gate 171 -129 170 0
-129 -171 0
170 -171 0
129 -170 171 0
c gate 172 129 -170 0
129 -172 0
-170 -172 0
-129 170 172 0
c gate 173 -171 -172 0
-171 -173 0
-172 -173 0
171 172 173 0
c gate 174 -128 173 0
-128 -174 0
173 -174 0
128 -173 174 0
c gate 175 -168 -171 0
-168 -175 0
-171 -175 0
168 171 175 0
c gate 176 -134 -137 0
-134 -176 0
-137 -176 0
134 137 176 0
c gate 177 -162 -165 0
-162 -177 0
-165 -177 0
162 165 177 0
c gate 178 3 16 0
3 -178 0
16 -178 0
-3 -16 178 0
c gate 179 4 15 0
4 -179 0
15 -179 0
-4 -15 179 0
c gate 180 -145 -148 0
-145 -180 0
-148 -180 0
145 148 180 0
c gate 181 179 -180 0
179 -181 0
-180 -181 0
-179 180 181 0
c gate 182 -179 180 0
-179 -182 0
180 -182 0
179 -180 182 0
c gate 183 -181 -182 0
-181 -183 0
-182 -183 0
181 182 183 0
c gate 184 178 183 0
178 -184 0
183 -184 0
-178 -183 184 0
c gate 185 -178 -183 0
-178 -185 0
-183 -185 0
178 183 185 0
c gate 186 -184 -185 0
-184 -186 0
-185 -186 0
184 185 186 0
c gate 187 -156 -159 0
-156 -187 0
-159 -187 0
156 159 187 0
c gate 188 5 14 0
5 -188 0
14 -188 0
-5 -14 188 0
c gate 189 6 13 0
6 -189 0
13 -189 0
-6 -13 189 0
c gate 190 7 12 0
7 -190 0
12 -190 0
-7 -12 190 0
c gate 191 -189 -190 0
-189 -191 0
-190 -191 0
189 190 191 0
c gate 192 189 190 0
189 -192 0
190 -192 0
-189 -190 192 0
c gate 193 -191 -192 0
-191 -193 0
-192 -193 0
191 192 193 0
c gate 194 -188 -193 0
-188 -194 0
-193 -194 0
188 193 194 0
c gate 195 188 193 0
188 -195 0
193 -195 0
-188 -193 195 0
c gate 196 -194 -195 0
-194 -196 0
-195 -196 0
194 195 196 0
c gate 197 8 11 0
8 -197 0
11 -197 0
-8 -11 197 0
c gate 198 -104 197 0
-104 -198 0
197 -198 0
104 -197 198 0
c gate 199 196 198 0
196 -199 0
198 -199 0
-196 -198 199 0
c gate 200 -196 -198 0
-196 -200 0
-198 -200 0
196 198 200 0
c gate 201 -199 -200 0
-199 -201 0
-200 -201 0
199 200 201 0
c gate 202 -187 201 0
-187 -202 0
201 -202 0
187 -201 202 0
c gate 203 187 -201 0
187 -203 0
-201 -203 0
-187 201 203 0
c gate 204 -202 -203 0
-202 -204 0
-203 -204 0
202 203 204 0
c gate 205 186 204 0
186 -205 0
204 -205 0
-186 -204 205 0
c gate 206 -186 -204 0
-186 -206 0
-204 -206 0
186 204 206 0
c gate 207 -205 -206 0
-205 -207 0
-206 -207 0
205 206 207 0
c gate 208 -177 207 0
-177 -208 0
207 -208 0
177 -207 208 0
c gate 209 177 -207 0
177 -209 0
-207 -209 0
-177 207 209 0
c gate 210 -208 -209 0
-208 -210 0
-209 -210 0
208 209 210 0
c gate 211 -176 210 0
-176 -211 0
210 -211 0
176 -210 211 0
c gate 212 176 -210 0
176 -212 0
-210 -212 0
-176 210 212 0
c gate 213 -211 -212 0
-211 -213 0
-212 -213 0
211 212 213 0
c gate 214 -175 213 0
-175 -214 0
213 -214 0
175 -213 214 0
c gate 215 -174 -214 0
-174 -215 0
-214 -215 0
174 214 215 0
c gate 216 -208 -211 0
-208 -216 0
-211 -216 0
208 211 216 0
c gate 217 -181 -184 0
-181 -217 0
-184 -217 0
181 184 217 0
c gate 218 -202 -205 0
-202 -218 0
-205 -218 0
202 205 218 0
c gate 219 4 16 0
4 -219 0
16 -219 0
-4 -16 219 0
c gate 220 5 15 0
5 -220 0
15 -220 0
-5 -15 220 0
c gate 221 -192 -195 0
-192 -221 0
-195 -221 0
192 195 221 0
c gate 222 220 -221 0
220 -222 0
-221 -222 0
-220 221 222 0
c gate 223 -220 221 0
-220 -223 0
221 -223 0
220 -221 223 0
c gate 224 -222 -223 0
-222 -224 0
-223 -224 0
222 223 224 0
c gate 225 219 224 0
219 -225 0
224 -225 0
-219 -224 225 0
c gate 226 -219 -224 0
-219 -226 0
-224 -226 0
219 224 226 0
c gate 227 -225 -226 0
-225 -227 0
-226 -227 0
225 226 227 0
c gate 228 6 14 0
6 -228 0
14 -228 0
-6 -14 228 0
c gate 229 7 13 0
7 -229 0
13 -229 0
-7 -13 229 0
c gate 230 8 12 0
8 -230 0
12 -230 0
-8 -12 230 0
c gate 231 229 230 0
229 -231 0
230 -231 0
-229 -230 231 0
c gate 232 -229 -230 0
-229 -232 0
-230 -232 0
229 230 232 0
c gate 233 -231 -232 0
-231 -233 0
-232 -233 0
231 232 233 0
c gate 234 228 233 0
228 -234 0
233 -234 0
-228 -233 234 0
c gate 235 -228 -233 0
-228 -235 0
-233 -235 0
228 233 235 0
c gate 236 -234 -235 0
-234 -236 0
-235 -236 0
234 235 236 0
c gate 237 -152 -199 0
-152 -237 0
-199 -237 0
152 199 237 0
c gate 238 236 -237 0
236 -238 0
-237 -238 0
-236 237 238 0
c gate 239 -236 237 0
-236 -239 0
237 -239 0
236 -237 239 0
c gate 240 -238 -239 0
-238 -240 0
-239 -240 0
238 239 240 0
c gate 241 227 240 0
227 -241 0
240 -241 0
-227 -240 241 0
c gate 242 -227 -240 0
-227 -242 0
-240 -242 0
227 240 242 0
c gate 243 -241 -242 0
-241 -243 0
-242 -243 0
241 242 243 0
c gate 244 -218 243 0
-218 -244 0
243 -244 0
218 -243 244 0
c gate 245 218 -243 0
218 -245 0
-243 -245 0
-218 243 245 0
c gate 246 -244 -245 0
-244 -246 0
-245 -246 0
244 245 246 0
c gate 247 -217 246 0
-217 -247 0
246 -247 0
217 -246 247 0
c gate 248 217 -246 0
217 -248 0
-246 -248 0
-217 246 248 0
c gate 249 -247 -248 0
-247 -249 0
-248 -249 0
247 248 249 0
c gate 250 216 -249 0
216 -250 0
-249 -250 0
-216 249 250 0
c gate 251 175 -213 0
175 -251 0
-213 -251 0
-175 213 251 0
c gate 252 -250 -251 0
-250 -252 0
-251 -252 0
250 251 252 0
c gate 253 -215 252 0
-215 -253 0
252 -253 0
215 -252 253 0
c gate 254 -216 249 0
-216 -254 0
249 -254 0
216 -249 254 0
c gate 255 -244 -247 0
-244 -255 0
-247 -255 0
244 247 255 0
c gate 256 -222 -225 0
-222 -256 0
-225 -256 0
222 225 256 0
c gate 257 5 16 0
5 -257 0
16 -257 0
-5 -16 257 0
c gate 258 6 15 0
6 -258 0
15 -258 0
-6 -15 258 0
c gate 259 -231 -234 0
-231 -259 0
-234 -259 0
231 234 259 0
c gate 260 258 -259 0
258 -260 0
-259 -260 0
-258 259 260 0
c gate 261 -258 259 0
-258 -261 0
259 -261 0
258 -259 261 0
c gate 262 -260 -261 0
-260 -262 0
-261 -262 0
260 261 262 0
c gate 263 257 262 0
257 -263 0
262 -263 0
-257 -262 263 0
c gate 264 -257 -262 0
-257 -264 0
-262 -264 0
257 262 264 0
c gate 265 -263 -264 0
-263 -265 0
-264 -265 0
263 264 265 0
c gate 266 8 13 0
8 -266 0
13 -266 0
-8 -13 266 0
c gate 267 7 14 0
7 -267 0
14 -267 0
-7 -14 267 0
c gate 268 266 267 0
266 -268 0
267 -268 0
-266 -267 268 0
c gate 269 -266 -267 0
-266 -269 0
-267 -269 0
266 267 269 0
c gate 270 -268 -269 0
-268 -270 0
-269 -270 0
268 269 270 0
c gate 271 265 270 0
265 -271 0
270 -271 0
-265 -270 271 0
c gate 272 -265 -270 0
-265 -272 0
-270 -272 0
265 270 272 0
c gate 273 -271 -272 0
-271 -273 0
-272 -273 0
271 272 273 0
c gate 274 -238 -241 0
-238 -274 0
-241 -274 0
238 241 274 0
c gate 275 273 -274 0
273 -275 0
-274 -275 0
-273 274 275 0
c gate 276 -273 274 0
-273 -276 0
274 -276 0
273 -274 276 0
c gate 277 -275 -276 0
-275 -277 0
-276 -277 0
275 276 277 0
c gate 278 -256 277 0
-256 -278 0
277 -278 0
256 -277 278 0
c gate 279 256 -277 0
256 -279 0
-277 -279 0
-256 277 279 0
c gate 280 -278 -279 0
-278 -280 0
-279 -280 0
278 279 280 0
c gate 281 -255 280 0
-255 -281 0
280 -281 0
255 -280 281 0
c gate 282 -254 -281 0
-254 -282 0
-281 -282 0
254 281 282 0
c gate 283 -253 282 0
-253 -283 0
282 -283 0
253 -282 283 0
c gate 284 255 -280 0
255 -284 0
-280 -284 0
-255 280 284 0
c gate 285 -275 -278 0
-275 -285 0
-278 -285 0
275 278 285 0
c gate 286 -260 -263 0
-260 -286 0
-263 -286 0
260 263 286 0
c gate 287 8 14 0
8 -287 0
14 -287 0
-8 -14 287 0
c gate 288 6 16 0
6 -288 0
16 -288 0
-6 -16 288 0
c gate 289 15 268 0
15 -289 0
268 -289 0
-15 -268 289 0
c gate 290 7 15 0
7 -290 0
15 -290 0
-7 -15 290 0
c gate 291 -268 -290 0
-268 -291 0
-290 -291 0
268 290 291 0
c gate 292 -289 -291 0
-289 -292 0
-291 -292 0
289 291 292 0
c gate 293 288 292 0
288 -293 0
292 -293 0
-288 -292 293 0
c gate 294 -288 -292 0
-288 -294 0
-292 -294 0
288 292 294 0
c gate 295 -293 -294 0
-293 -295 0
-294 -295 0
293 294 295 0
c gate 296 287 295 0
287 -296 0
295 -296 0
-287 -295 296 0
c gate 297 -287 -295 0
-287 -297 0
-295 -297 0
287 295 297 0
c gate 298 -296 -297 0
-296 -298 0
-297 -298 0
296 297 298 0
c gate 299 271 298 0
271 -299 0
298 -299 0
-271 -298 299 0
c gate 300 -271 -298 0
-271 -300 0
-298 -300 0
271 298 300 0
c gate 301 -299 -300 0
-299 -301 0
-300 -301 0
299 300 301 0
c gate 302 -286 301 0
-286 -302 0
301 -302 0
286 -301 302 0
c gate 303 286 -301 0
286 -303 0
-301 -303 0
-286 301 303 0
c gate 304 -302 -303 0
-302 -304 0
-303 -304 0
302 303 304 0
c gate 305 -285 304 0
-285 -305 0
304 -305 0
285 -304 305 0
c gate 306 -299 -302 0
-299 -306 0
-302 -306 0
299 302 306 0
c gate 307 -289 -293 0
-289 -307 0
-293 -307 0
289 293 307 0
c gate 308 7 16 0
7 -308 0
16 -308 0
-7 -16 308 0
c gate 309 8 15 0
8 -309 0
15 -309 0
-8 -15 309 0
c gate 310 -308 -309 0
-308 -310 0
-309 -310 0
308 309 310 0
c gate 311 308 309 0
308 -311 0
309 -311 0
-308 -309 311 0
c gate 312 -310 -311 0
-310 -312 0
-311 -312 0
310 311 312 0
c gate 313 296 -312 0
296 -313 0
-312 -313 0
-296 312 313 0
c gate 314 -296 312 0
-296 -314 0
312 -314 0
296 -312 314 0
c gate 315 -313 -314 0
-313 -315 0
-314 -315 0
313 314 315 0
c gate 316 -307 -315 0
-307 -316 0
-315 -316 0
307 315 316 0
c gate 317 307 315 0
307 -317 0
315 -317 0
-307 -315 317 0
c gate 318 -316 -317 0
-316 -318 0
-317 -318 0
316 317 318 0
c gate 319 306 -318 0
306 -319 0
-318 -319 0
-306 318 319 0
c gate 320 -306 318 0
-306 -320 0
318 -320 0
306 -318 320 0
c gate 321 -319 -320 0
-319 -321 0
-320 -321 0
319 320 321 0
c gate 322 -305 321 0
-305 -322 0
321 -322 0
305 -321 322 0
c gate 323 285 -304 0
285 -323 0
-304 -323 0
-285 304 323 0
c gate 324 322 -323 0
322 -324 0
-323 -324 0
-322 323 324 0
c gate 325 -284 324 0
-284 -325 0
324 -325 0
284 -324 325 0
c gate 326 -283 325 0
-283 -326 0
325 -326 0
283 -325 326 0
c gate 327 -319 -322 0
-319 -327 0
-322 -327 0
319 322 327 0
c gate 328 -290 -310 0
-290 -328 0
-310 -328 0
290 310 328 0
c gate 329 -318 328 0
-318 -329 0
328 -329 0
318 -328 329 0
c gate 330 -327 -329 0
-327 -330 0
-329 -330 0
327 329 330 0
c gate 331 -326 330 0
-326 -331 0
330 -331 0
326 -330 331 0
c gate 332 311 316 0
311 -332 0
316 -332 0
-311 -316 332 0
c gate 333 -331 332 0
-331 -333 0
332 -333 0
331 -332 333 0
c gate 334 128 -173 0
128 -334 0
-173 -334 0
-128 173 334 0
c gate 335 4 9 0
4 -335 0
9 -335 0
-4 -9 335 0
c gate 336 3 10 0
3 -336 0
10 -336 0
-3 -10 336 0
c gate 337 335 336 0
335 -337 0
336 -337 0
-335 -336 337 0
c gate 338 2 11 0
2 -338 0
11 -338 0
-2 -11 338 0
c gate 339 -335 -336 0
-335 -339 0
-336 -339 0
335 336 339 0
c gate 340 -337 -339 0
-337 -340 0
-339 -340 0
337 339 340 0
c gate 341 338 340 0
338 -341 0
340 -341 0
-338 -340 341 0
c gate 342 -337 -341 0
-337 -342 0
-341 -342 0
337 341 342 0
c gate 343 -20 -22 0
-20 -343 0
-22 -343 0
20 22 343 0
c gate 344 -23 -343 0
-23 -344 0
-343 -344 0
23 343 344 0
c gate 345 -342 344 0
-342 -345 0
344 -345 0
342 -344 345 0
c gate 346 2 12 0
2 -346 0
12 -346 0
-2 -12 346 0
c gate 347 1 13 0
1 -347 0
13 -347 0
-1 -13 347 0
c gate 348 -346 -347 0
-346 -348 0
-347 -348 0
346 347 348 0
c gate 349 346 347 0
346 -349 0
347 -349 0
-346 -347 349 0
c gate 350 -348 -349 0
-348 -350 0
-349 -350 0
348 349 350 0
c gate 351 342 -344 0
342 -351 0
-344 -351 0
-342 344 351 0
c gate 352 -345 -351 0
-345 -352 0
-351 -352 0
345 351 352 0
c gate 353 350 352 0
350 -353 0
352 -353 0
-350 -352 353 0
c gate 354 -345 -353 0
-345 -354 0
-353 -354 0
345 353 354 0
c gate 355 -36 -45 0
-36 -355 0
-45 -355 0
36 45 355 0
c gate 356 -46 -355 0
-46 -356 0
-355 -356 0
46 355 356 0
c gate 357 -354 356 0
-354 -357 0
356 -357 0
354 -356 357 0
c gate 358 354 -356 0
354 -358 0
-356 -358 0
-354 356 358 0
c gate 359 -357 -358 0
-357 -359 0
-358 -359 0
357 358 359 0
c gate 360 349 359 0
349 -360 0
359 -360 0
-349 -359 360 0
c gate 361 -357 -360 0
-357 -361 0
-360 -361 0
357 360 361 0
c gate 362 -78 -80 0
-78 -362 0
-80 -362 0
78 80 362 0
c gate 363 -81 -362 0
-81 -363 0
-362 -363 0
81 362 363 0
c gate 364 -361 363 0
-361 -364 0
363 -364 0
361 -363 364 0
c gate 365 -76 -126 0
-76 -365 0
-126 -365 0
76 126 365 0
c gate 366 -127 -365 0
-127 -366 0
-365 -366 0
127 365 366 0
c gate 367 364 366 0
364 -367 0
366 -367 0
-364 -366 367 0
c gate 368 -284 367 0
-284 -368 0
367 -368 0
284 -367 368 0
c gate 369 -334 368 0
-334 -369 0
368 -369 0
334 -368 369 0
c gate 370 252 369 0
252 -370 0
369 -370 0
-252 -369 370 0
c gate 371 283 370 0
283 -371 0
370 -371 0
-283 -370 371 0
c gate 372 361 -363 0
361 -372 0
-363 -372 0
-361 363 372 0
c gate 373 -349 -359 0
-349 -373 0
-359 -373 0
349 359 373 0
c gate 374 -360 -373 0
-360 -374 0
-373 -374 0
360 373 374 0
c gate 375 -364 374 0
-364 -375 0
374 -375 0
364 -374 375 0
c gate 376 -372 375 0
-372 -376 0
375 -376 0
372 -375 376 0
c gate 377 -338 -340 0
-338 -377 0
-340 -377 0
338 340 377 0
c gate 378 -341 -377 0
-341 -378 0
-377 -378 0
341 377 378 0
c gate 379 3 9 0
3 -379 0
9 -379 0
-3 -9 379 0
c gate 380 2 10 0
2 -380 0
10 -380 0
-2 -10 380 0
c gate 381 379 380 0
379 -381 0
380 -381 0
-379 -380 381 0
c gate 382 -379 -380 0
-379 -382 0
-380 -382 0
379 380 382 0
c gate 383 1 11 0
1 -383 0
11 -383 0
-1 -11 383 0
c gate 384 -382 383 0
-382 -384 0
383 -384 0
382 -383 384 0
c gate 385 -381 -384 0
-381 -385 0
-384 -385 0
381 384 385 0
c gate 386 378 -385 0
378 -386 0
-385 -386 0
-378 385 386 0
c gate 387 1 12 0
1 -387 0
12 -387 0
-1 -12 387 0
c gate 388 -378 385 0
-378 -388 0
385 -388 0
378 -385 388 0
c gate 389 -386 -388 0
-386 -389 0
-388 -389 0
386 388 389 0
c gate 390 387 389 0
387 -390 0
389 -390 0
-387 -389 390 0
c gate 391 -386 -390 0
-386 -391 0
-390 -391 0
386 390 391 0
c gate 392 -350 -352 0
-350 -392 0
-352 -392 0
350 352 392 0
c gate 393 -353 -392 0
-353 -393 0
-392 -393 0
353 392 393 0
c gate 394 391 -393 0
391 -394 0
-393 -394 0
-391 393 394 0
c gate 395 -391 393 0
-391 -395 0
393 -395 0
391 -393 395 0
c gate 396 -387 -389 0
-387 -396 0
-389 -396 0
387 389 396 0
c gate 397 -3 -11 0
-3 -397 0
-11 -397 0
3 11 397 0
c gate 398 -20 -397 0
-20 -398 0
-397 -398 0
20 397 398 0
c gate 399 1 9 0
1 -399 0
9 -399 0
-1 -9 399 0
c gate 400 380 399 0
380 -400 0
399 -400 0
-380 -399 400 0
c gate 401 -398 400 0
-398 -401 0
400 -401 0
398 -400 401 0
c gate 402 -390 401 0
-390 -402 0
401 -402 0
390 -401 402 0
c gate 403 -396 402 0
-396 -403 0
402 -403 0
396 -402 403 0
c gate 404 -395 -403 0
-395 -404 0
-403 -404 0
395 403 404 0
c gate 405 -394 -404 0
-394 -405 0
-404 -405 0
394 404 405 0
c gate 406 376 405 0
376 -406 0
405 -406 0
-376 -405 406 0
c gate 407 366 406 0
366 -407 0
406 -407 0
-366 -406 407 0
c gate 408 376 395 0
376 -408 0
395 -408 0
-376 -395 408 0
c gate 409 -401 -408 0
-401 -409 0
-408 -409 0
401 408 409 0
c gate 410 -407 409 0
-407 -410 0
409 -410 0
407 -409 410 0
c gate 411 -371 410 0
-371 -411 0
410 -411 0
371 -410 411 0
c gate 412 -333 411 0
-333 -412 0
411 -412 0
333 -411 412 0
c PO
-412 0
